% Generated FlatZinc statistics:
%%%mzn-stat: paths=0
%%%mzn-stat: flatBoolVars=423
%%%mzn-stat: flatIntVars=261
%%%mzn-stat: flatBoolConstraints=349
%%%mzn-stat: flatIntConstraints=484
%%%mzn-stat: evaluatedReifiedConstraints=192
%%%mzn-stat: evaluatedHalfReifiedConstraints=106
%%%mzn-stat: eliminatedImplications=8
%%%mzn-stat: method="satisfy"
%%%mzn-stat: flatTime=0.0909598
%%%mzn-stat-end
coeffs = [-11, -10, -9, -8, -7, -2, -1, 0, 1, 6, 7, 8, 9, 10, 11, 12]
----------
coeffs = [-11, -7, -6, -5, -4, -2, -1, 0, 1, 5, 6, 7, 8, 10, 11, 12]
----------
coeffs = [-14, -13, -12, -10, -6, -2, -1, 0, 2, 6, 7, 8, 10, 11, 12, 14]
----------
coeffs = [-14, -13, -12, -11, -7, -2, -1, 0, 1, 6, 7, 8, 10, 11, 12, 13]
----------
coeffs = [-15, -12, -10, -5, -4, -3, -2, -1, 1, 3, 4, 5, 6, 12, 14, 15]
----------
coeffs = [-15, -12, -11, -5, -4, -3, -2, 0, 3, 4, 8, 9, 10, 12, 13, 15]
----------
coeffs = [-15, -12, -11, -10, -8, -7, -2, -1, 3, 4, 8, 9, 10, 12, 13, 15]
----------
coeffs = [-15, -12, -11, -10, -8, -7, -4, -3, 1, 2, 8, 9, 10, 12, 13, 15]
----------
coeffs = [-15, -12, -11, -5, -4, -3, -2, -1, 2, 4, 8, 9, 10, 12, 13, 15]
----------
coeffs = [-11, -6, -5, -4, -3, -2, -1, 0, 1, 2, 3, 4, 5, 10, 11, 12]
----------
coeffs = [-11, -10, -9, -8, -3, -2, -1, 0, 1, 2, 3, 4, 9, 10, 11, 12]
----------
coeffs = [-9, -8, -7, -6, -5, -3, -2, -1, 0, 1, 2, 4, 7, 8, 9, 10]
----------
coeffs = [-9, -8, -7, -5, -4, -3, -2, -1, 1, 2, 3, 4, 5, 7, 8, 9]
----------
coeffs = [-9, -8, -7, -6, -5, -4, -2, -1, 0, 1, 2, 5, 7, 8, 9, 10]
----------
coeffs = [-9, -8, -7, -6, -5, -4, -3, -1, 0, 1, 2, 6, 7, 8, 9, 10]
----------
coeffs = [-7, -6, -5, -4, -3, -2, -1, 0, 1, 2, 3, 4, 5, 6, 7, 8]
----------
coeffs = [-10, -9, -8, -7, -3, -2, -1, 0, 1, 2, 3, 4, 6, 7, 8, 9]
----------
coeffs = [-9, -8, -7, -5, -4, -3, -2, -1, 0, 1, 2, 3, 4, 5, 6, 10]
----------
coeffs = [-9, -7, -6, -5, -4, -3, -2, -1, 0, 1, 2, 3, 4, 5, 6, 8]
----------
coeffs = [-9, -8, -6, -5, -4, -3, -2, -1, 0, 1, 2, 3, 4, 5, 6, 9]
----------
coeffs = [-10, -8, -6, -5, -4, -3, -2, -1, 1, 2, 3, 4, 5, 6, 8, 10]
----------
coeffs = [-13, -12, -11, -5, -4, -3, -2, 0, 3, 4, 7, 8, 9, 11, 12, 13]
----------
coeffs = [-14, -12, -10, -6, -4, -3, -2, -1, 1, 2, 3, 4, 6, 10, 12, 14]
----------
coeffs = [-13, -12, -11, -5, -4, -3, -2, -1, 2, 4, 7, 8, 9, 11, 12, 13]
----------
coeffs = [-13, -12, -11, -9, -8, -7, -2, -1, 3, 4, 7, 8, 9, 11, 12, 13]
----------
coeffs = [-13, -12, -11, -9, -8, -7, -4, -3, 1, 2, 7, 8, 9, 11, 12, 13]
----------
coeffs = [-13, -12, -11, -9, -8, -7, -4, -3, 0, 2, 3, 4, 5, 11, 12, 13]
----------
coeffs = [-15, -14, -12, -6, -5, -4, -3, -1, 1, 2, 3, 4, 5, 10, 12, 15]
----------
coeffs = [-15, -13, -12, -10, -9, -8, -2, -1, 3, 4, 7, 8, 10, 11, 12, 15]
----------
coeffs = [-15, -13, -12, -10, -9, -8, -4, -3, 1, 2, 7, 8, 10, 11, 12, 15]
----------
coeffs = [-15, -13, -12, -10, -9, -8, -4, -3, 0, 2, 3, 4, 5, 11, 12, 15]
----------
coeffs = [-13, -12, -11, -10, -5, -4, -2, -1, 0, 1, 2, 5, 11, 12, 13, 14]
----------
coeffs = [-13, -12, -11, -10, -5, -4, -3, -1, 0, 1, 2, 6, 11, 12, 13, 14]
----------
coeffs = [-14, -12, -11, -10, -6, -4, -3, -2, 0, 1, 2, 6, 10, 12, 13, 14]
----------
coeffs = [-13, -12, -10, -7, -5, -4, -2, -1, 0, 1, 2, 5, 7, 8, 10, 13]
----------
coeffs = [-13, -12, -10, -5, -4, -3, -2, -1, 0, 1, 2, 3, 4, 5, 6, 13]
----------
coeffs = [-13, -12, -11, -6, -5, -4, -3, -1, 0, 1, 2, 6, 7, 8, 9, 14]
----------
coeffs = [-13, -12, -11, -5, -4, -3, -2, -1, 0, 1, 2, 3, 4, 5, 6, 14]
----------
coeffs = [-13, -12, -11, -10, -9, -8, -7, -1, 0, 1, 2, 10, 11, 12, 13, 14]
----------
coeffs = [-13, -12, -11, -10, -9, -8, -6, -1, 0, 1, 2, 9, 11, 12, 13, 14]
----------
coeffs = [-13, -12, -11, -9, -8, -7, -6, -1, 0, 1, 2, 7, 8, 9, 10, 14]
----------
coeffs = [-13, -12, -11, -9, -8, -7, -2, -1, 0, 1, 2, 3, 4, 5, 10, 14]
----------
coeffs = [-14, -12, -11, -10, -8, -7, -6, -2, 0, 1, 2, 6, 8, 9, 10, 14]
----------
coeffs = [-13, -12, -10, -9, -8, -7, -6, -1, 0, 1, 2, 7, 8, 9, 10, 13]
----------
coeffs = [-13, -12, -10, -9, -8, -6, -3, -1, 0, 1, 2, 3, 4, 6, 9, 13]
----------
coeffs = [-15, -13, -11, -10, -9, -7, -4, -3, 1, 2, 7, 9, 10, 11, 13, 15]
----------
coeffs = [-15, -14, -10, -6, -5, -3, -2, -1, 1, 2, 3, 5, 6, 10, 14, 15]
----------
coeffs = [-15, -13, -11, -10, -9, -7, -2, -1, 3, 4, 7, 9, 10, 11, 13, 15]
----------
coeffs = [-13, -12, -11, -10, -5, -3, -2, -1, 0, 1, 2, 4, 11, 12, 13, 14]
----------
coeffs = [-13, -12, -11, -10, -9, -7, -6, -1, 0, 1, 2, 8, 11, 12, 13, 14]
----------
coeffs = [-14, -13, -12, -11, -3, -2, -1, 0, 1, 2, 3, 4, 10, 11, 12, 13]
----------
coeffs = [-14, -13, -12, -7, -3, -2, -1, 0, 1, 2, 3, 4, 6, 7, 8, 13]
----------
coeffs = [-13, -11, -10, -8, -5, -3, -2, -1, 0, 1, 2, 4, 7, 9, 10, 12]
----------
coeffs = [-13, -11, -10, -5, -4, -3, -2, -1, 0, 1, 2, 3, 4, 5, 6, 12]
----------
coeffs = [-13, -11, -10, -9, -8, -7, -6, -1, 0, 1, 2, 7, 8, 9, 10, 12]
----------
coeffs = [-13, -11, -10, -9, -7, -6, -4, -1, 0, 1, 2, 3, 5, 6, 8, 12]
----------
coeffs = [-15, -12, -9, -5, -4, -3, -2, 0, 3, 4, 6, 8, 9, 10, 12, 15]
----------
coeffs = [-13, -12, -9, -5, -4, -3, -2, 0, 3, 4, 6, 7, 8, 9, 11, 12]
----------
coeffs = [-15, -12, -9, -5, -4, -3, -1, 0, 3, 5, 6, 8, 9, 10, 12, 15]
----------
coeffs = [-15, -12, -9, -5, -4, -3, -2, -1, 2, 4, 6, 8, 9, 10, 12, 15]
----------
coeffs = [-13, -12, -9, -5, -4, -3, -2, -1, 2, 4, 6, 7, 8, 9, 11, 12]
----------
coeffs = [-15, -12, -10, -9, -8, -6, -1, 0, 4, 5, 6, 8, 9, 10, 12, 15]
----------
coeffs = [-15, -12, -10, -9, -8, -6, -5, -4, 0, 1, 6, 8, 9, 10, 12, 15]
----------
coeffs = [-15, -12, -10, -9, -8, -6, -2, -1, 3, 4, 6, 8, 9, 10, 12, 15]
----------
coeffs = [-15, -12, -10, -9, -8, -6, -4, -3, 1, 2, 6, 8, 9, 10, 12, 15]
----------
coeffs = [-15, -12, -10, -9, -8, -6, -4, -3, 0, 2, 3, 4, 5, 9, 12, 15]
----------
coeffs = [-12, -11, -9, -8, -7, -6, -4, -3, 0, 2, 3, 4, 5, 9, 12, 13]
----------
coeffs = [-14, -10, -8, -7, -5, -4, -2, -1, 1, 2, 4, 5, 7, 8, 10, 14]
----------
coeffs = [-14, -10, -7, -6, -5, -3, -2, -1, 1, 2, 3, 5, 6, 7, 10, 14]
----------
coeffs = [-14, -8, -7, -6, -4, -3, -2, -1, 1, 2, 3, 4, 6, 7, 8, 14]
----------
coeffs = [-15, -14, -10, -9, -7, -6, -2, -1, 1, 2, 6, 7, 9, 10, 14, 15]
----------
coeffs = [-12, -9, -7, -6, -5, -4, -1, 0, 1, 2, 3, 4, 7, 9, 10, 11]
----------
coeffs = [-8, -7, -6, -5, -3, -2, -1, 0, 1, 2, 3, 4, 5, 6, 7, 8]
----------
coeffs = [-8, -7, -6, -5, -4, -3, -2, -1, 0, 1, 2, 3, 5, 6, 7, 8]
----------
coeffs = [-8, -7, -6, -5, -4, -3, -2, -1, 1, 2, 3, 4, 5, 6, 7, 8]
----------
coeffs = [-9, -8, -7, -6, -3, -2, -1, 0, 1, 2, 3, 4, 7, 8, 9, 10]
----------
coeffs = [-12, -11, -8, -7, -6, -5, -2, -1, 0, 1, 4, 5, 6, 7, 10, 11]
----------
coeffs = [-11, -10, -7, -6, -5, -4, -1, 0, 1, 2, 5, 6, 7, 8, 11, 12]
----------
coeffs = [-12, -11, -10, -8, -7, -6, -5, -1, 0, 1, 2, 4, 5, 6, 7, 11]
----------
coeffs = [-11, -10, -5, -4, -3, -2, -1, 0, 1, 2, 3, 4, 5, 6, 11, 12]
----------
coeffs = [-12, -11, -6, -5, -4, -3, -2, -1, 0, 1, 2, 3, 4, 5, 10, 11]
----------
coeffs = [-12, -11, -10, -5, -4, -3, -2, -1, 0, 1, 2, 3, 4, 5, 6, 11]
----------
coeffs = [-8, -7, -6, -5, -4, -3, -2, -1, 0, 1, 2, 3, 4, 5, 6, 7]
----------
coeffs = [-11, -7, -5, -4, -3, -2, -1, 0, 2, 3, 4, 5, 7, 8, 11, 12]
----------
coeffs = [-12, -11, -8, -7, -5, -4, -3, -2, 0, 1, 2, 3, 4, 5, 7, 11]
----------
coeffs = [-11, -10, -7, -6, -3, -2, -1, 0, 1, 2, 3, 4, 7, 8, 11, 12]
----------
coeffs = [-12, -11, -8, -7, -4, -3, -2, -1, 0, 1, 2, 3, 6, 7, 10, 11]
----------
coeffs = [-12, -11, -7, -6, -5, -3, -2, -1, 3, 4, 5, 8, 9, 10, 11, 12]
----------
coeffs = [-12, -11, -9, -6, -5, -4, -3, -1, 2, 3, 5, 7, 8, 10, 11, 12]
----------
coeffs = [-12, -11, -9, -6, -5, -4, -3, -2, 1, 3, 5, 7, 8, 10, 11, 12]
----------
coeffs = [-12, -11, -7, -6, -5, -3, -2, -1, 3, 4, 5, 6, 7, 8, 11, 12]
----------
coeffs = [-12, -11, -9, -6, -5, -4, -3, -2, 1, 3, 5, 6, 8, 9, 11, 12]
----------
coeffs = [-12, -11, -8, -7, -6, -5, -4, -3, 1, 2, 3, 5, 6, 7, 11, 12]
----------
coeffs = [-12, -11, -9, -8, -6, -5, -3, -1, 2, 3, 4, 5, 6, 9, 11, 12]
----------
coeffs = [-12, -11, -9, -8, -6, -5, -3, -2, 1, 3, 4, 5, 6, 9, 11, 12]
----------
coeffs = [-15, -12, -10, -8, -7, -6, -2, -1, 1, 2, 6, 7, 8, 10, 12, 15]
----------
coeffs = [-12, -9, -7, -6, -5, -4, -2, -1, 1, 2, 3, 5, 7, 8, 9, 12]
----------
coeffs = [-12, -9, -8, -7, -5, -3, -2, -1, 1, 2, 4, 5, 6, 7, 9, 12]
----------
coeffs = [-12, -9, -8, -7, -6, -5, -2, -1, 1, 2, 3, 4, 5, 7, 9, 12]
----------
coeffs = [-11, -8, -7, -6, -5, -4, -2, -1, 1, 4, 5, 6, 7, 8, 10, 11]
----------
coeffs = [-11, -8, -7, -6, -5, -4, -2, -1, 1, 2, 4, 5, 6, 7, 8, 11]
----------
coeffs = [-10, -7, -6, -5, -3, -2, -1, 0, 2, 3, 4, 5, 6, 9, 10, 11]
----------
coeffs = [-10, -9, -6, -5, -4, -3, -2, -1, 0, 1, 2, 3, 5, 6, 9, 10]
----------
coeffs = [-10, -9, -6, -5, -3, -2, -1, 0, 1, 2, 3, 4, 5, 6, 9, 10]
----------
coeffs = [-14, -12, -10, -6, -5, -2, -1, 0, 1, 2, 4, 6, 8, 10, 12, 14]
----------
coeffs = [-14, -12, -10, -8, -6, -4, -2, -1, 0, 1, 2, 5, 6, 10, 12, 14]
----------
coeffs = [-15, -10, -9, -6, -3, -2, -1, 0, 2, 3, 4, 5, 6, 9, 10, 15]
----------
coeffs = [-15, -12, -10, -8, -3, -2, -1, 0, 2, 3, 4, 5, 8, 10, 12, 15]
----------
coeffs = [-12, -9, -8, -6, -3, -2, -1, 0, 2, 3, 4, 5, 6, 8, 9, 12]
----------
coeffs = [-12, -9, -8, -6, -5, -4, -3, -2, 0, 1, 2, 3, 6, 8, 9, 12]
----------
coeffs = [-10, -8, -7, -5, -4, -2, -1, 0, 1, 2, 3, 5, 6, 8, 9, 11]
----------
coeffs = [-10, -8, -7, -6, -5, -4, -3, -1, 2, 4, 5, 6, 7, 8, 9, 11]
----------
coeffs = [-11, -9, -7, -6, -5, -3, -2, -1, 1, 2, 3, 5, 6, 7, 9, 11]
----------
coeffs = [-12, -11, -9, -7, -5, -4, -3, -1, 1, 3, 4, 5, 7, 9, 11, 12]
----------
coeffs = [-12, -7, -6, -5, -4, -3, -2, -1, 1, 2, 3, 4, 5, 6, 7, 12]
----------
coeffs = [-12, -11, -10, -8, -7, -5, -3, -1, 2, 3, 4, 5, 6, 9, 11, 12]
----------
coeffs = [-12, -11, -10, -8, -7, -5, -3, -2, 1, 3, 4, 5, 6, 9, 11, 12]
----------
coeffs = [-10, -9, -8, -7, -6, -4, -2, -1, 1, 2, 4, 6, 7, 8, 9, 10]
----------
coeffs = [-11, -10, -7, -6, -3, -2, -1, 0, 1, 2, 3, 4, 5, 6, 9, 10]
----------
coeffs = [-10, -8, -7, -6, -5, -4, -3, -1, 1, 3, 4, 5, 6, 7, 8, 10]
----------
coeffs = [-12, -11, -10, -8, -7, -5, -3, -1, 2, 3, 4, 5, 7, 10, 11, 12]
----------
coeffs = [-12, -11, -10, -7, -5, -4, -3, -2, 1, 3, 5, 7, 8, 10, 11, 12]
----------
coeffs = [-12, -11, -10, -7, -5, -4, -3, -1, 2, 3, 5, 7, 8, 10, 11, 12]
----------
coeffs = [-12, -11, -9, -7, -6, -4, -2, -1, 1, 3, 4, 6, 7, 8, 9, 11]
----------
coeffs = [-12, -11, -10, -8, -7, -6, -2, -1, 2, 3, 4, 6, 7, 8, 10, 11]
----------
coeffs = [-11, -9, -8, -7, -6, -4, -3, -1, 1, 2, 4, 6, 7, 9, 11, 12]
----------
coeffs = [-11, -10, -8, -7, -6, -4, -3, -2, 1, 2, 6, 7, 8, 10, 11, 12]
----------
coeffs = [-11, -9, -8, -7, -6, -4, -2, -1, 1, 3, 4, 6, 7, 9, 11, 12]
----------
coeffs = [-11, -10, -8, -7, -6, -4, -2, -1, 2, 3, 6, 7, 8, 10, 11, 12]
----------
coeffs = [-10, -9, -8, -7, -4, -3, -2, -1, 0, 1, 2, 3, 6, 7, 8, 9]
----------
coeffs = [-11, -9, -8, -7, -6, -5, -4, -2, 1, 3, 4, 5, 6, 7, 8, 10]
----------
coeffs = [-11, -9, -8, -6, -5, -3, -2, -1, 0, 1, 2, 4, 5, 7, 8, 10]
----------
coeffs = [-12, -11, -10, -9, -8, -5, -4, -3, 1, 2, 3, 5, 6, 7, 11, 12]
----------
coeffs = [-11, -10, -8, -7, -6, -5, -4, -1, 1, 2, 4, 5, 6, 7, 8, 11]
----------
coeffs = [-11, -10, -9, -7, -4, -3, -2, -1, 0, 1, 4, 5, 6, 7, 9, 12]
----------
coeffs = [-11, -10, -9, -8, -6, -4, -2, 0, 1, 2, 3, 4, 8, 9, 10, 11]
----------
coeffs = [-11, -10, -9, -7, -6, -4, -2, -1, 0, 1, 2, 3, 7, 9, 10, 11]
----------
coeffs = [-14, -12, -10, -8, -6, -4, -2, -1, 0, 1, 2, 3, 4, 6, 10, 14]
----------
coeffs = [-10, -9, -8, -5, -4, -3, -2, -1, 1, 2, 3, 4, 5, 8, 9, 10]
----------
coeffs = [-10, -9, -8, -7, -4, -3, -2, -1, 1, 2, 3, 4, 7, 8, 9, 10]
----------
coeffs = [-14, -10, -6, -5, -4, -3, -2, -1, 1, 2, 3, 4, 5, 6, 10, 14]
----------
coeffs = [-12, -11, -10, -9, -8, -7, -4, -1, 1, 2, 3, 4, 7, 9, 10, 11]
----------
coeffs = [-12, -11, -10, -9, -8, -5, -4, -3, 1, 2, 3, 5, 9, 10, 11, 12]
----------
coeffs = [-12, -11, -10, -9, -8, -6, -4, -2, 1, 2, 3, 6, 8, 9, 10, 11]
----------
coeffs = [-11, -10, -9, -6, -3, -2, -1, 0, 2, 3, 4, 5, 6, 9, 10, 11]
----------
coeffs = [-11, -10, -9, -8, -3, -2, -1, 0, 2, 3, 4, 5, 8, 9, 10, 11]
----------
coeffs = [-12, -11, -10, -9, -5, -3, -2, -1, 3, 4, 5, 8, 9, 10, 11, 12]
----------
coeffs = [-11, -10, -9, -8, -6, -3, -2, -1, 2, 4, 6, 8, 9, 10, 11, 12]
----------
coeffs = [-11, -10, -9, -7, -4, -3, -2, -1, 1, 4, 7, 8, 9, 10, 11, 12]
----------
coeffs = [-11, -10, -9, -8, -3, -2, -1, 0, 4, 5, 6, 7, 8, 9, 10, 11]
----------
coeffs = [-11, -10, -9, -7, -5, -4, -3, -1, 1, 3, 4, 5, 7, 9, 10, 11]
----------
coeffs = [-11, -10, -8, -7, -5, -4, -2, -1, 1, 2, 4, 5, 7, 8, 10, 11]
----------
coeffs = [-11, -9, -8, -7, -5, -3, -2, -1, 1, 2, 3, 5, 7, 8, 9, 11]
----------
coeffs = [-11, -10, -9, -8, -5, -4, -3, -2, 0, 1, 2, 3, 8, 9, 10, 11]
----------
coeffs = [-11, -10, -9, -6, -5, -4, -3, -2, 0, 1, 2, 3, 6, 9, 10, 11]
----------
coeffs = [-11, -10, -9, -8, -7, -6, -5, -4, 0, 1, 2, 3, 8, 9, 10, 11]
----------
coeffs = [-11, -10, -8, -7, -6, -5, -4, -1, 1, 4, 5, 6, 7, 8, 10, 11]
----------
coeffs = [-13, -12, -6, -5, -4, -3, -2, -1, 2, 3, 4, 6, 7, 8, 11, 12]
----------
coeffs = [-13, -11, -9, -7, -4, -3, -2, -1, 1, 2, 3, 4, 7, 9, 11, 13]
----------
coeffs = [-15, -13, -10, -9, -4, -3, -2, -1, 1, 2, 3, 4, 7, 10, 11, 15]
----------
coeffs = [-13, -12, -9, -8, -4, -3, -2, -1, 1, 2, 3, 4, 7, 8, 11, 12]
----------
coeffs = [-10, -9, -6, -5, -3, -2, -1, 0, 1, 2, 3, 4, 6, 7, 10, 11]
----------
coeffs = [-11, -10, -6, -5, -4, -3, -2, -1, 1, 2, 3, 4, 5, 6, 10, 11]
----------
coeffs = [-11, -9, -7, -5, -3, -2, -1, 0, 1, 2, 3, 4, 5, 7, 9, 11]
----------
coeffs = [-11, -10, -7, -6, -4, -3, -2, -1, 0, 1, 2, 3, 5, 6, 9, 10]
----------
coeffs = [-11, -8, -7, -4, -3, -2, -1, 0, 1, 2, 3, 4, 5, 8, 9, 12]
----------
coeffs = [-15, -11, -10, -7, -4, -3, -2, -1, 1, 2, 3, 4, 9, 10, 13, 15]
----------
coeffs = [-15, -10, -9, -6, -4, -3, -2, -1, 1, 2, 3, 4, 6, 9, 10, 15]
----------
coeffs = [-12, -9, -8, -6, -4, -3, -2, -1, 1, 2, 3, 4, 6, 8, 9, 12]
----------
coeffs = [-12, -11, -8, -7, -4, -3, -2, -1, 1, 2, 3, 4, 8, 9, 12, 13]
----------
coeffs = [-15, -12, -11, -8, -5, -4, -3, -2, 1, 2, 4, 9, 10, 12, 13, 15]
----------
coeffs = [-10, -8, -6, -5, -3, -2, -1, 0, 1, 2, 3, 4, 6, 8, 10, 11]
----------
coeffs = [-10, -9, -8, -6, -4, -2, -1, 0, 1, 2, 3, 4, 6, 7, 8, 10]
----------
coeffs = [-12, -9, -8, -7, -5, -3, -2, -1, 2, 3, 4, 7, 8, 9, 11, 13]
----------
coeffs = [-11, -9, -8, -7, -5, -4, -2, -1, 2, 3, 5, 7, 8, 9, 11, 12]
----------
coeffs = [-11, -9, -8, -7, -5, -4, -1, 0, 3, 4, 5, 7, 8, 9, 11, 12]
----------
coeffs = [-11, -9, -8, -7, -5, -4, -3, -2, 1, 2, 5, 7, 8, 9, 11, 12]
----------
coeffs = [-15, -13, -11, -10, -9, -3, -2, -1, 2, 3, 4, 5, 9, 11, 13, 15]
----------
coeffs = [-15, -13, -12, -10, -9, -4, -2, -1, 2, 3, 4, 5, 8, 11, 12, 15]
----------
coeffs = [-15, -12, -10, -8, -4, -3, -2, -1, 1, 2, 3, 4, 8, 10, 12, 15]
----------
coeffs = [-13, -12, -11, -7, -5, -4, -2, 0, 3, 4, 5, 7, 8, 11, 12, 13]
----------
coeffs = [-13, -12, -11, -7, -5, -4, -3, -1, 2, 3, 5, 7, 8, 11, 12, 13]
----------
coeffs = [-11, -8, -7, -5, -3, -2, -1, 0, 1, 2, 3, 4, 5, 8, 9, 11]
----------
coeffs = [-11, -9, -7, -5, -4, -3, -2, -1, 0, 1, 2, 3, 5, 7, 9, 11]
----------
coeffs = [-11, -10, -8, -5, -3, -2, -1, 0, 1, 2, 3, 4, 5, 6, 8, 11]
----------
coeffs = [-11, -10, -9, -5, -3, -2, -1, 0, 1, 2, 3, 4, 5, 6, 7, 11]
----------
coeffs = [-11, -10, -8, -6, -5, -4, -2, -1, 0, 1, 4, 5, 6, 8, 10, 11]
----------
coeffs = [-13, -12, -11, -9, -7, -4, -2, -1, 2, 3, 4, 5, 8, 11, 12, 13]
----------
coeffs = [-13, -11, -9, -8, -7, -4, -3, -2, 1, 2, 3, 5, 7, 8, 9, 12]
----------
coeffs = [-12, -11, -9, -8, -7, -5, -3, -2, 1, 2, 4, 5, 7, 8, 9, 11]
----------
coeffs = [-12, -9, -8, -7, -6, -4, -3, -1, 2, 3, 4, 5, 6, 8, 9, 13]
----------
coeffs = [-11, -9, -8, -7, -6, -4, -3, -2, 1, 2, 3, 5, 6, 8, 9, 12]
----------
coeffs = [-13, -12, -9, -6, -5, -4, -2, -1, 2, 3, 4, 7, 8, 9, 11, 12]
----------
coeffs = [-15, -11, -10, -5, -3, -2, -1, 0, 1, 2, 3, 4, 5, 9, 13, 15]
----------
coeffs = [-15, -12, -11, -10, -4, -3, -2, -1, 2, 4, 5, 8, 9, 12, 13, 15]
----------
coeffs = [-15, -12, -10, -9, -4, -3, -2, -1, 2, 4, 5, 6, 8, 9, 12, 15]
----------
coeffs = [-13, -12, -11, -7, -5, -4, -2, -1, 2, 4, 5, 7, 8, 11, 12, 13]
----------
coeffs = [-13, -12, -11, -7, -5, -4, -3, -2, 1, 3, 5, 7, 8, 11, 12, 13]
----------
coeffs = [-12, -11, -9, -7, -4, -3, -2, -1, 2, 4, 5, 6, 8, 9, 12, 13]
----------
coeffs = [-13, -12, -9, -8, -7, -5, -4, -1, 2, 3, 4, 5, 7, 8, 9, 13]
----------
coeffs = [-13, -12, -11, -9, -8, -5, -4, -3, 1, 2, 3, 5, 9, 11, 12, 13]
----------
coeffs = [-12, -11, -8, -4, -3, -2, -1, 0, 1, 2, 3, 4, 5, 9, 12, 13]
----------
coeffs = [-13, -12, -9, -8, -7, -5, -4, -2, 1, 2, 3, 5, 7, 8, 9, 13]
----------
coeffs = [-13, -12, -11, -8, -7, -5, -4, -2, 1, 2, 4, 5, 7, 11, 12, 13]
----------
coeffs = [-13, -11, -9, -7, -6, -5, -4, -2, 1, 2, 3, 5, 7, 9, 11, 13]
----------
coeffs = [-13, -12, -9, -8, -6, -5, -4, -2, 1, 2, 3, 4, 7, 9, 11, 12]
----------
coeffs = [-13, -9, -7, -5, -4, -3, -2, -1, 1, 2, 3, 4, 5, 7, 9, 13]
----------
coeffs = [-13, -9, -8, -7, -5, -4, -3, -2, 1, 4, 5, 7, 8, 9, 12, 13]
----------
coeffs = [-13, -9, -8, -6, -5, -4, -3, -2, 1, 3, 4, 6, 7, 8, 9, 12]
----------
coeffs = [-11, -10, -9, -8, -7, -6, -1, 0, 1, 2, 7, 8, 9, 10, 11, 12]
----------
coeffs = [-13, -12, -11, -10, -7, -6, -1, 0, 1, 2, 7, 8, 11, 12, 13, 14]
----------
coeffs = [-13, -12, -11, -10, -3, -2, -1, 0, 1, 2, 3, 4, 11, 12, 13, 14]
----------
coeffs = [-11, -10, -9, -8, -5, -4, -1, 0, 1, 2, 5, 6, 9, 10, 11, 12]
----------
coeffs = [-13, -12, -11, -10, -5, -4, -1, 0, 1, 2, 5, 6, 11, 12, 13, 14]
----------
coeffs = [-13, -12, -11, -10, -9, -8, -1, 0, 1, 2, 9, 10, 11, 12, 13, 14]
----------
coeffs = [-14, -12, -11, -10, -7, -6, -2, 0, 1, 2, 6, 8, 10, 12, 13, 14]
----------
coeffs = [-14, -12, -11, -10, -6, -4, -2, 0, 1, 2, 5, 6, 10, 12, 13, 14]
----------
coeffs = [-9, -8, -7, -6, -5, -4, -1, 0, 1, 2, 5, 6, 7, 8, 9, 10]
----------
coeffs = [-9, -8, -5, -4, -3, -2, -1, 0, 1, 2, 3, 4, 5, 6, 9, 10]
----------
coeffs = [-13, -12, -7, -6, -3, -2, -1, 0, 1, 2, 3, 4, 7, 8, 13, 14]
----------
coeffs = [-13, -12, -7, -6, -5, -4, -1, 0, 1, 2, 5, 6, 7, 8, 13, 14]
----------
coeffs = [-13, -12, -5, -4, -3, -2, -1, 0, 1, 2, 3, 4, 5, 6, 13, 14]
----------
coeffs = [-13, -12, -9, -8, -7, -6, -1, 0, 1, 2, 7, 8, 9, 10, 13, 14]
----------
coeffs = [-13, -12, -9, -8, -3, -2, -1, 0, 1, 2, 3, 4, 9, 10, 13, 14]
----------
coeffs = [-13, -12, -9, -8, -5, -4, -1, 0, 1, 2, 5, 6, 9, 10, 13, 14]
----------
coeffs = [-14, -12, -10, -8, -7, -6, -2, 0, 1, 2, 6, 8, 9, 10, 13, 14]
----------
coeffs = [-14, -12, -10, -8, -6, -4, -2, 0, 1, 2, 5, 6, 9, 10, 13, 14]
----------
coeffs = [-14, -13, -11, -10, -7, -6, -2, -1, 1, 2, 6, 7, 10, 11, 13, 14]
----------
coeffs = [-14, -13, -11, -10, -6, -5, -2, -1, 1, 2, 5, 6, 10, 11, 13, 14]
----------
coeffs = [-12, -11, -10, -9, -8, -7, -2, -1, 0, 1, 6, 7, 8, 9, 10, 11]
----------
coeffs = [-14, -13, -12, -10, -8, -6, -2, -1, 0, 2, 6, 7, 10, 11, 12, 14]
----------
coeffs = [-14, -13, -12, -11, -8, -7, -2, -1, 0, 1, 6, 7, 10, 11, 12, 13]
----------
coeffs = [-12, -11, -10, -9, -4, -3, -2, -1, 0, 1, 2, 3, 8, 9, 10, 11]
----------
coeffs = [-14, -13, -12, -11, -4, -3, -2, -1, 0, 1, 2, 3, 10, 11, 12, 13]
----------
coeffs = [-14, -13, -12, -10, -6, -5, -2, -1, 0, 2, 4, 6, 10, 11, 12, 14]
----------
coeffs = [-12, -11, -10, -9, -6, -5, -2, -1, 0, 1, 4, 5, 8, 9, 10, 11]
----------
coeffs = [-14, -13, -12, -11, -6, -5, -2, -1, 0, 1, 4, 5, 10, 11, 12, 13]
----------
coeffs = [-14, -13, -12, -11, -10, -9, -2, -1, 0, 1, 8, 9, 10, 11, 12, 13]
----------
coeffs = [-14, -13, -10, -9, -7, -6, -2, -1, 1, 2, 6, 7, 9, 10, 13, 14]
----------
coeffs = [-14, -13, -10, -9, -6, -5, -2, -1, 1, 2, 5, 6, 9, 10, 13, 14]
----------
coeffs = [-14, -13, -10, -9, -6, -5, -2, -1, 0, 2, 4, 6, 8, 10, 12, 14]
----------
coeffs = [-14, -13, -10, -9, -8, -6, -2, -1, 0, 2, 6, 7, 8, 10, 12, 14]
----------
coeffs = [-14, -13, -8, -7, -4, -3, -2, -1, 0, 1, 2, 3, 6, 7, 12, 13]
----------
coeffs = [-14, -13, -10, -9, -6, -5, -2, -1, 0, 1, 4, 5, 8, 9, 12, 13]
----------
coeffs = [-14, -13, -8, -7, -6, -5, -2, -1, 0, 1, 4, 5, 6, 7, 12, 13]
----------
coeffs = [-14, -13, -6, -5, -4, -3, -2, -1, 0, 1, 2, 3, 4, 5, 12, 13]
----------
coeffs = [-14, -13, -10, -9, -8, -7, -2, -1, 0, 1, 6, 7, 8, 9, 12, 13]
----------
coeffs = [-14, -13, -10, -9, -4, -3, -2, -1, 0, 1, 2, 3, 8, 9, 12, 13]
----------
coeffs = [-10, -9, -8, -7, -6, -5, -2, -1, 0, 1, 4, 5, 6, 7, 8, 9]
----------
coeffs = [-10, -9, -6, -5, -4, -3, -2, -1, 0, 1, 2, 3, 4, 5, 8, 9]
----------
coeffs = [-13, -11, -9, -7, -6, -5, -2, -1, 2, 3, 4, 5, 7, 9, 11, 13]
----------
coeffs = [-12, -11, -9, -7, -6, -4, -2, -1, 2, 3, 4, 5, 8, 9, 12, 13]
----------
coeffs = [-12, -11, -9, -8, -7, -5, -2, -1, 2, 3, 4, 5, 7, 8, 9, 11]
----------
coeffs = [-12, -11, -10, -9, -8, -7, -6, -1, 0, 1, 2, 7, 8, 9, 10, 11]
----------
coeffs = [-9, -8, -7, -6, -4, -3, -2, -1, 0, 1, 2, 3, 7, 8, 9, 10]
----------
coeffs = [-13, -12, -11, -10, -8, -7, -6, -1, 0, 1, 2, 7, 11, 12, 13, 14]
----------
coeffs = [-14, -12, -11, -10, -8, -7, -6, -2, 0, 1, 2, 6, 10, 12, 13, 14]
----------
coeffs = [-13, -12, -11, -10, -4, -3, -2, -1, 0, 1, 2, 3, 11, 12, 13, 14]
----------
coeffs = [-13, -8, -7, -6, -4, -3, -2, -1, 0, 1, 2, 3, 7, 12, 13, 14]
----------
coeffs = [-12, -11, -9, -8, -7, -4, -3, -2, 1, 2, 4, 5, 6, 9, 12, 13]
----------
coeffs = [-11, -7, -6, -5, -4, -3, -2, -1, 0, 1, 2, 3, 5, 6, 7, 11]
----------
coeffs = [-11, -8, -6, -5, -4, -3, -2, -1, 0, 1, 2, 3, 5, 6, 8, 11]
----------
coeffs = [-11, -9, -8, -5, -4, -3, -2, -1, 0, 1, 2, 3, 5, 8, 9, 11]
----------
coeffs = [-11, -7, -6, -5, -3, -2, -1, 0, 1, 2, 3, 4, 5, 6, 7, 11]
----------
coeffs = [-11, -8, -6, -5, -3, -2, -1, 0, 1, 2, 3, 4, 5, 6, 8, 11]
----------
coeffs = [-11, -9, -8, -5, -3, -2, -1, 0, 1, 2, 3, 4, 5, 8, 9, 11]
----------
coeffs = [-11, -10, -7, -6, -3, -2, -1, 0, 1, 2, 3, 4, 6, 7, 10, 11]
----------
coeffs = [-11, -10, -8, -6, -3, -2, -1, 0, 1, 2, 3, 4, 6, 8, 10, 11]
----------
coeffs = [-11, -10, -8, -5, -4, -3, -2, -1, 1, 2, 3, 4, 5, 8, 10, 11]
----------
coeffs = [-11, -10, -7, -6, -4, -3, -2, -1, 0, 1, 2, 3, 6, 7, 10, 11]
----------
coeffs = [-11, -10, -8, -6, -4, -3, -2, -1, 0, 1, 2, 3, 6, 8, 10, 11]
----------
coeffs = [-11, -10, -9, -8, -3, -2, -1, 0, 1, 2, 3, 4, 8, 9, 10, 11]
----------
coeffs = [-11, -10, -9, -7, -3, -2, -1, 0, 1, 2, 3, 4, 7, 9, 10, 11]
----------
coeffs = [-11, -10, -9, -8, -4, -3, -2, -1, 1, 2, 3, 4, 8, 9, 10, 11]
----------
coeffs = [-11, -10, -9, -6, -4, -3, -2, -1, 1, 2, 3, 4, 6, 9, 10, 11]
----------
coeffs = [-11, -10, -9, -7, -4, -3, -2, -1, 0, 1, 2, 3, 7, 9, 10, 11]
----------
coeffs = [-11, -10, -9, -8, -4, -3, -2, -1, 0, 1, 2, 3, 8, 9, 10, 11]
----------
coeffs = [-15, -12, -6, -5, -4, -3, -2, -1, 2, 3, 4, 6, 8, 10, 12, 15]
----------
coeffs = [-15, -12, -6, -5, -4, -3, -2, -1, 1, 2, 3, 4, 5, 6, 12, 15]
----------
coeffs = [-15, -12, -10, -8, -6, -4, -3, -2, 1, 2, 3, 4, 5, 6, 12, 15]
----------
coeffs = [-15, -12, -6, -5, -4, -2, -1, 0, 3, 4, 5, 6, 8, 10, 12, 15]
----------
coeffs = [-15, -12, -10, -8, -5, -4, -3, -2, 0, 1, 2, 3, 8, 10, 12, 15]
----------
coeffs = [-12, -11, -9, -6, -5, -4, -3, -1, 2, 3, 5, 6, 8, 9, 11, 12]
----------
coeffs = [-12, -11, -10, -8, -7, -5, -3, -2, 1, 3, 4, 5, 7, 10, 11, 12]
----------
coeffs = [-11, -10, -7, -6, -5, -4, -3, -2, 1, 2, 3, 5, 6, 7, 10, 11]
----------
coeffs = [-11, -10, -9, -7, -4, -3, -2, -1, 0, 1, 4, 7, 9, 10, 11, 12]
----------
coeffs = [-12, -11, -9, -7, -6, -4, -3, -1, 1, 2, 4, 6, 7, 8, 9, 11]
----------
coeffs = [-12, -11, -10, -8, -7, -6, -3, -2, 1, 2, 4, 6, 7, 8, 10, 11]
----------
coeffs = [-12, -11, -8, -7, -6, -4, -3, -2, 1, 2, 3, 4, 5, 6, 12, 13]
----------
coeffs = [-11, -7, -6, -5, -3, -2, -1, 0, 1, 2, 3, 4, 5, 9, 10, 11]
----------
coeffs = [-11, -8, -6, -5, -3, -2, -1, 0, 1, 2, 3, 4, 5, 8, 10, 11]
----------
coeffs = [-11, -9, -8, -5, -3, -2, -1, 0, 1, 2, 3, 4, 5, 7, 8, 11]
----------
coeffs = [-11, -10, -8, -6, -3, -2, -1, 0, 1, 2, 3, 4, 5, 6, 8, 10]
----------
coeffs = [-15, -12, -11, -7, -5, -4, -3, -1, 2, 3, 5, 8, 10, 12, 13, 15]
----------
coeffs = [-15, -12, -10, -6, -5, -4, -3, -1, 2, 3, 6, 8, 10, 12, 14, 15]
----------
coeffs = [-15, -12, -11, -7, -5, -4, -2, 0, 3, 4, 5, 8, 10, 12, 13, 15]
----------
coeffs = [-15, -12, -9, -6, -5, -3, -1, 0, 1, 4, 5, 8, 9, 10, 12, 15]
----------
coeffs = [-15, -12, -10, -6, -5, -2, -1, 0, 1, 4, 5, 8, 10, 12, 14, 15]
----------
coeffs = [-15, -12, -6, -5, -4, -3, -2, -1, 1, 2, 4, 5, 6, 8, 10, 14]
----------
coeffs = [-15, -12, -10, -9, -8, -5, -4, -1, 0, 1, 3, 5, 6, 9, 12, 15]
----------
coeffs = [-15, -12, -10, -8, -5, -4, -2, -1, 0, 1, 3, 4, 5, 6, 10, 14]
----------
coeffs = [-15, -10, -9, -6, -5, -4, -3, -2, 0, 1, 2, 3, 6, 9, 10, 15]
----------
coeffs = [-12, -9, -8, -7, -6, -5, -4, -1, 1, 2, 3, 4, 7, 9, 10, 11]
----------
coeffs = [-12, -10, -8, -7, -6, -5, -4, -2, 1, 2, 3, 6, 8, 9, 10, 11]
----------
coeffs = [-12, -11, -8, -7, -6, -5, -4, -3, 1, 2, 3, 5, 9, 10, 11, 12]
----------
coeffs = [-12, -10, -9, -8, -6, -5, -2, -1, 2, 3, 4, 6, 7, 8, 10, 11]
----------
coeffs = [-12, -11, -9, -8, -6, -5, -3, -1, 2, 3, 4, 5, 7, 10, 11, 12]
----------
coeffs = [-12, -10, -9, -7, -5, -4, -2, -1, 1, 3, 4, 6, 7, 8, 9, 11]
----------
coeffs = [-11, -9, -8, -7, -6, -4, -3, -1, 1, 2, 4, 5, 7, 9, 10, 12]
----------
coeffs = [-12, -11, -10, -7, -5, -4, -3, -2, 1, 3, 5, 6, 8, 9, 11, 12]
----------
coeffs = [-12, -11, -10, -9, -5, -3, -2, -1, 3, 4, 5, 6, 7, 8, 11, 12]
----------
coeffs = [-11, -10, -8, -7, -6, -4, -3, -2, 1, 2, 5, 6, 8, 9, 10, 12]
----------
coeffs = [-11, -10, -9, -8, -6, -3, -2, -1, 2, 4, 5, 6, 7, 8, 10, 12]
----------
coeffs = [-11, -10, -9, -7, -4, -3, -2, -1, 1, 4, 5, 6, 7, 8, 9, 12]
----------
coeffs = [-15, -12, -10, -6, -5, -4, -3, -2, 1, 3, 6, 8, 10, 12, 14, 15]
----------
coeffs = [-15, -12, -10, -6, -5, -4, -1, 0, 3, 5, 6, 8, 10, 12, 14, 15]
----------
coeffs = [-15, -12, -10, -8, -5, -4, -2, -1, 1, 2, 3, 4, 5, 6, 10, 14]
----------
coeffs = [-15, -12, -9, -6, -5, -4, -2, -1, 2, 3, 4, 8, 9, 10, 12, 15]
----------
coeffs = [-15, -12, -11, -7, -5, -4, -2, -1, 2, 4, 5, 8, 10, 12, 13, 15]
----------
coeffs = [-15, -12, -11, -7, -5, -4, -3, -2, 1, 3, 5, 8, 10, 12, 13, 15]
----------
coeffs = [-15, -12, -8, -4, -3, -2, -1, 0, 1, 2, 3, 4, 5, 10, 12, 15]
----------
coeffs = [-12, -9, -8, -7, -6, -4, -3, -2, 1, 2, 3, 5, 6, 8, 9, 13]
----------
coeffs = [-15, -12, -11, -10, -8, -5, -4, -3, 1, 2, 3, 5, 9, 12, 13, 15]
----------
coeffs = [-13, -9, -8, -6, -5, -3, -2, -1, 2, 3, 4, 6, 7, 8, 9, 12]
----------
coeffs = [-10, -9, -6, -5, -4, -3, -2, -1, 0, 1, 2, 3, 6, 7, 10, 11]
----------
coeffs = [-15, -8, -6, -5, -4, -3, -2, -1, 1, 2, 4, 5, 6, 10, 12, 14]
----------
coeffs = [-15, -12, -10, -8, -6, -4, -3, -2, 1, 2, 3, 5, 10, 12, 14, 15]
----------
coeffs = [-15, -12, -10, -8, -6, -5, -3, -1, 2, 3, 4, 6, 10, 12, 14, 15]
----------
coeffs = [-15, -12, -11, -8, -7, -5, -3, -1, 2, 3, 4, 5, 10, 12, 13, 15]
----------
coeffs = [-15, -12, -11, -10, -5, -3, -2, -1, 3, 4, 5, 8, 9, 12, 13, 15]
----------
coeffs = [-13, -12, -11, -8, -7, -5, -3, -1, 2, 3, 4, 5, 7, 11, 12, 13]
----------
coeffs = [-13, -12, -11, -8, -7, -5, -3, -2, 1, 3, 4, 5, 7, 11, 12, 13]
----------
coeffs = [-13, -12, -11, -9, -5, -3, -2, -1, 3, 4, 5, 8, 9, 11, 12, 13]
----------
coeffs = [-13, -9, -8, -7, -5, -3, -2, -1, 2, 4, 5, 7, 8, 9, 12, 13]
----------
coeffs = [-15, -12, -10, -8, -7, -6, -3, -1, 1, 3, 4, 5, 6, 7, 12, 15]
----------
coeffs = [-9, -8, -7, -6, -5, -4, -3, -2, 0, 1, 2, 3, 7, 8, 9, 10]
----------
coeffs = [-10, -9, -8, -7, -3, -2, -1, 0, 2, 3, 4, 5, 6, 7, 8, 9]
----------
coeffs = [-10, -8, -7, -6, -5, -4, -3, -1, 0, 2, 3, 5, 6, 8, 9, 11]
----------
coeffs = [-9, -8, -7, -6, -3, -2, -1, 0, 3, 4, 5, 6, 7, 8, 9, 10]
----------
coeffs = [-10, -9, -8, -7, -4, -3, -2, -1, 2, 3, 4, 5, 6, 7, 8, 9]
----------
coeffs = [-11, -9, -8, -6, -5, -3, -2, 0, 1, 3, 4, 5, 6, 7, 8, 10]
----------
coeffs = [-9, -8, -7, -6, -5, -4, -3, -2, 1, 2, 3, 4, 7, 8, 9, 10]
----------
coeffs = [-10, -9, -8, -7, -6, -5, -4, -3, 0, 1, 2, 3, 6, 7, 8, 9]
----------
coeffs = [-15, -9, -6, -5, -3, -2, -1, 0, 1, 2, 3, 4, 5, 9, 10, 15]
----------
coeffs = [-15, -10, -9, -6, -4, -3, -1, 0, 1, 2, 4, 5, 6, 9, 10, 15]
----------
coeffs = [-15, -10, -9, -6, -5, -4, -2, -1, 0, 1, 3, 4, 6, 9, 10, 15]
----------
coeffs = [-15, -10, -9, -5, -4, -3, -2, -1, 0, 1, 2, 3, 5, 6, 9, 15]
----------
coeffs = [-12, -9, -7, -5, -4, -3, -2, -1, 1, 2, 5, 6, 7, 8, 9, 12]
----------
coeffs = [-15, -12, -8, -6, -5, -4, -1, 0, 1, 2, 4, 5, 6, 10, 12, 15]
----------
coeffs = [-15, -11, -9, -7, -5, -3, -2, 0, 3, 4, 5, 6, 9, 10, 13, 15]
----------
coeffs = [-15, -11, -7, -6, -5, -3, -2, -1, 2, 3, 4, 5, 6, 10, 13, 15]
----------
coeffs = [-15, -12, -10, -9, -6, -5, -3, -1, 0, 1, 4, 5, 8, 9, 12, 15]
----------
coeffs = [-15, -12, -10, -9, -6, -4, -2, -1, 2, 3, 4, 5, 8, 9, 12, 15]
----------
coeffs = [-12, -11, -9, -7, -4, -3, -2, 0, 3, 4, 5, 6, 8, 9, 12, 13]
----------
coeffs = [-12, -11, -7, -6, -4, -3, -2, -1, 2, 3, 4, 5, 6, 8, 12, 13]
----------
coeffs = [-12, -9, -8, -6, -5, -3, -2, -1, 2, 3, 4, 6, 7, 8, 9, 11]
----------
coeffs = [-13, -11, -7, -6, -5, -3, -2, -1, 2, 3, 4, 5, 6, 7, 11, 13]
----------
coeffs = [-13, -11, -9, -7, -5, -4, -3, -2, 1, 2, 5, 6, 7, 9, 11, 13]
----------
coeffs = [-13, -12, -9, -8, -5, -4, -3, -2, 1, 2, 4, 6, 7, 9, 11, 12]
----------
coeffs = [-15, -12, -8, -6, -4, -3, -2, -1, 2, 3, 4, 5, 6, 10, 12, 15]
----------
coeffs = [-15, -12, -10, -6, -5, -4, -3, -2, 1, 2, 3, 4, 6, 8, 12, 15]
----------
coeffs = [-15, -11, -10, -6, -4, -3, -2, 0, 2, 3, 4, 5, 6, 9, 13, 15]
----------
coeffs = [-15, -11, -10, -6, -5, -4, -3, -2, 1, 2, 3, 5, 6, 9, 13, 15]
----------
coeffs = [-12, -11, -8, -6, -4, -3, -2, -1, 2, 3, 4, 5, 6, 9, 12, 13]
----------
coeffs = [-13, -11, -9, -7, -5, -3, -2, -1, 2, 4, 5, 6, 7, 9, 11, 13]
----------
coeffs = [-12, -11, -9, -8, -7, -6, -4, -2, 1, 2, 3, 4, 5, 9, 12, 13]
----------
coeffs = [-13, -11, -8, -6, -5, -3, -2, 0, 2, 3, 4, 5, 7, 8, 9, 12]
----------
coeffs = [-13, -11, -6, -5, -4, -3, -2, -1, 0, 1, 2, 3, 4, 5, 8, 12]
----------
coeffs = [-12, -10, -8, -6, -5, -4, -3, -2, 0, 1, 2, 4, 5, 6, 10, 12]
----------
coeffs = [-14, -9, -8, -7, -4, -2, -1, 0, 2, 3, 5, 6, 8, 9, 12, 14]
----------
coeffs = [-11, -9, -8, -6, -5, -4, -1, 0, 1, 2, 5, 6, 8, 9, 10, 11]
----------
coeffs = [-14, -9, -8, -7, -6, -2, -1, 0, 1, 2, 3, 5, 8, 9, 10, 14]
----------
coeffs = [-14, -10, -9, -8, -6, -4, -3, -2, 0, 2, 3, 4, 6, 9, 10, 14]
----------
coeffs = [-12, -10, -7, -6, -4, -3, -2, 0, 1, 2, 3, 4, 6, 8, 10, 12]
----------
coeffs = [-14, -10, -7, -6, -4, -3, -2, 0, 1, 2, 4, 5, 6, 8, 10, 14]
----------
coeffs = [-14, -10, -8, -6, -5, -4, -2, -1, 0, 2, 3, 4, 6, 7, 10, 14]
----------
coeffs = [-14, -10, -6, -4, -3, -2, -1, 0, 1, 2, 3, 4, 6, 8, 10, 14]
----------
coeffs = [-12, -10, -8, -6, -5, -4, -2, -1, 1, 2, 4, 5, 6, 8, 10, 12]
----------
coeffs = [-14, -12, -8, -7, -6, -4, -2, -1, 1, 2, 4, 6, 7, 8, 12, 14]
----------
coeffs = [-12, -10, -8, -6, -4, -3, -2, -1, 1, 2, 4, 6, 7, 9, 11, 12]
----------
coeffs = [-12, -10, -8, -6, -4, -3, -2, -1, 0, 1, 2, 3, 6, 8, 10, 12]
----------
coeffs = [-12, -10, -8, -6, -4, -2, -1, 0, 1, 2, 3, 5, 6, 8, 10, 12]
----------
coeffs = [-12, -10, -8, -6, -5, -3, -2, -1, 0, 1, 2, 4, 6, 8, 10, 12]
----------
coeffs = [-12, -7, -5, -4, -3, -2, -1, 0, 1, 2, 3, 4, 5, 7, 10, 12]
----------
coeffs = [-12, -11, -6, -5, -4, -3, -2, -1, 4, 5, 6, 7, 8, 9, 12, 13]
----------
coeffs = [-12, -11, -6, -5, -4, -3, -2, -1, 2, 3, 4, 5, 6, 7, 12, 13]
----------
coeffs = [-13, -12, -9, -8, -6, -5, -4, -1, 2, 3, 4, 5, 6, 7, 11, 12]
----------
coeffs = [-13, -12, -11, -9, -8, -7, -5, -3, 1, 3, 4, 5, 9, 11, 12, 13]
----------
coeffs = [-13, -12, -7, -6, -5, -4, -3, -2, 1, 2, 3, 4, 5, 6, 11, 12]
----------
coeffs = [-13, -12, -9, -8, -7, -6, -5, -4, 1, 2, 3, 4, 5, 6, 11, 12]
----------
coeffs = [-12, -11, -8, -7, -6, -5, -4, -3, 1, 2, 4, 5, 6, 9, 12, 13]
----------
coeffs = [-13, -11, -9, -7, -6, -5, -4, -3, 1, 2, 3, 5, 6, 9, 11, 13]
----------
coeffs = [-14, -8, -7, -6, -4, -2, -1, 0, 2, 3, 4, 5, 6, 8, 12, 14]
----------
coeffs = [-14, -8, -6, -5, -4, -3, -2, 0, 1, 2, 4, 6, 7, 8, 12, 14]
----------
coeffs = [-14, -12, -8, -7, -6, -2, -1, 0, 1, 2, 4, 5, 8, 10, 12, 14]
----------
coeffs = [-14, -12, -8, -6, -5, -2, -1, 0, 1, 2, 4, 7, 8, 10, 12, 14]
----------
coeffs = [-14, -12, -10, -7, -6, -4, -3, -2, 1, 2, 4, 5, 6, 10, 12, 14]
----------
coeffs = [-14, -12, -8, -6, -5, -4, -3, -2, 0, 1, 2, 4, 6, 7, 8, 14]
----------
coeffs = [-14, -12, -10, -6, -5, -4, -2, -1, 2, 3, 4, 6, 7, 10, 12, 14]
----------
coeffs = [-14, -12, -10, -8, -5, -4, -2, 0, 1, 2, 3, 6, 7, 8, 12, 14]
----------
coeffs = [-14, -12, -10, -8, -5, -4, -2, -1, 0, 1, 2, 7, 8, 10, 12, 14]
----------
coeffs = [-14, -12, -8, -6, -5, -4, -2, 0, 1, 2, 4, 5, 6, 7, 8, 14]
----------
coeffs = [-14, -12, -8, -6, -5, -4, -3, -2, 0, 1, 2, 6, 7, 8, 12, 14]
----------
coeffs = [-12, -10, -7, -6, -5, -4, -2, -1, 0, 1, 2, 3, 6, 7, 8, 12]
----------
coeffs = [-11, -10, -9, -6, -5, -4, -3, -2, 1, 2, 3, 5, 6, 9, 10, 11]
----------
coeffs = [-11, -10, -9, -6, -5, -3, -2, -1, 2, 3, 4, 5, 6, 9, 10, 11]
----------
coeffs = [-11, -10, -7, -6, -5, -3, -2, -1, 2, 3, 4, 5, 6, 7, 10, 11]
----------
coeffs = [-12, -8, -7, -6, -5, -4, -2, -1, 0, 1, 2, 5, 6, 7, 10, 12]
----------
coeffs = [-12, -8, -7, -6, -5, -4, -2, -1, 1, 2, 3, 6, 7, 8, 10, 12]
----------
coeffs = [-12, -11, -9, -7, -6, -4, -2, -1, 1, 2, 3, 4, 6, 8, 10, 12]
----------
coeffs = [-14, -7, -6, -5, -4, -3, -2, -1, 1, 2, 3, 4, 5, 6, 7, 14]
----------
coeffs = [-14, -8, -7, -5, -4, -3, -2, -1, 1, 2, 3, 4, 5, 7, 8, 14]
----------
coeffs = [-14, -12, -8, -6, -5, -4, -2, 0, 1, 2, 5, 6, 7, 8, 12, 14]
----------
coeffs = [-14, -10, -8, -7, -5, -3, -2, -1, 1, 2, 3, 5, 7, 8, 10, 14]
----------
coeffs = [-14, -12, -8, -7, -6, -5, -2, -1, 0, 2, 4, 5, 6, 8, 12, 14]
----------
coeffs = [-14, -12, -7, -6, -5, -4, -3, -1, 1, 3, 4, 5, 6, 7, 12, 14]
----------
coeffs = [-14, -12, -8, -7, -5, -4, -3, -1, 1, 3, 4, 5, 7, 8, 12, 14]
----------
coeffs = [-14, -12, -10, -8, -6, -5, -4, -1, 0, 1, 3, 4, 6, 8, 10, 14]
----------
coeffs = [-14, -12, -10, -8, -6, -4, -2, 0, 1, 3, 5, 7, 8, 10, 12, 14]
----------
coeffs = [-14, -12, -10, -8, -7, -5, -3, -1, 1, 3, 5, 7, 8, 10, 12, 14]
----------
coeffs = [-14, -12, -10, -8, -7, -5, -3, -1, 0, 2, 4, 6, 8, 10, 12, 14]
----------
coeffs = [-14, -12, -10, -7, -6, -5, -3, -1, 1, 3, 5, 6, 7, 10, 12, 14]
----------
coeffs = [-12, -7, -6, -5, -4, -3, -2, -1, 1, 3, 4, 5, 6, 7, 8, 12]
----------
coeffs = [-12, -11, -8, -6, -5, -4, -3, -1, 2, 4, 5, 6, 7, 9, 12, 13]
----------
coeffs = [-12, -8, -7, -6, -5, -4, -3, -1, 1, 2, 3, 4, 5, 6, 7, 12]
----------
coeffs = [-13, -12, -11, -9, -8, -5, -3, -1, 3, 4, 5, 7, 9, 11, 12, 13]
----------
coeffs = [-13, -11, -9, -6, -5, -4, -3, -1, 2, 3, 5, 6, 7, 9, 11, 13]
----------
coeffs = [-13, -12, -11, -9, -7, -5, -4, -3, 1, 3, 5, 8, 9, 11, 12, 13]
----------
coeffs = [-13, -11, -9, -7, -6, -5, -3, -2, 1, 3, 4, 5, 6, 9, 11, 13]
----------
coeffs = [-13, -12, -9, -7, -6, -5, -4, -2, 1, 3, 4, 5, 6, 8, 11, 12]
----------
coeffs = [-13, -11, -9, -6, -5, -3, -2, -1, 3, 4, 5, 6, 7, 9, 11, 13]
----------
coeffs = [-13, -12, -9, -6, -5, -4, -2, -1, 3, 4, 5, 6, 7, 8, 11, 12]
----------
coeffs = [-13, -12, -11, -9, -5, -4, -3, -1, 3, 5, 7, 8, 9, 11, 12, 13]
----------
coeffs = [-12, -11, -7, -6, -5, -4, -3, -2, 1, 4, 5, 6, 8, 9, 12, 13]
----------
coeffs = [-12, -9, -5, -4, -3, -2, -1, 0, 3, 4, 5, 6, 7, 8, 9, 12]
----------
coeffs = [-12, -9, -8, -6, -5, -3, -2, -1, 3, 4, 5, 6, 7, 8, 9, 12]
----------
coeffs = [-12, -9, -8, -7, -6, -5, -4, -3, 1, 2, 3, 5, 6, 8, 9, 12]
----------
coeffs = [-12, -9, -8, -7, -6, -5, -4, -3, 0, 1, 2, 3, 4, 5, 9, 12]
----------
coeffs = [-12, -9, -8, -6, -5, -4, -3, -1, 0, 2, 3, 4, 5, 7, 9, 12]
----------
coeffs = [-12, -8, -6, -5, -4, -3, -2, -1, 1, 2, 3, 4, 5, 6, 7, 12]
----------
coeffs = [-10, -7, -6, -5, -4, -3, -2, -1, 1, 2, 3, 4, 5, 6, 7, 10]
----------
coeffs = [-10, -8, -7, -6, -5, -3, -2, -1, 1, 2, 3, 5, 6, 7, 8, 10]
----------
==========
%%%mzn-stat: nodes=72422
%%%mzn-stat: failures=46484
%%%mzn-stat: restarts=0
%%%mzn-stat: variables=14367
%%%mzn-stat: intVars=301
%%%mzn-stat: boolVariables=14064
%%%mzn-stat: propagators=227
%%%mzn-stat: propagations=11378245
%%%mzn-stat: peakDepth=40
%%%mzn-stat: nogoods=46484
%%%mzn-stat: backjumps=13153
%%%mzn-stat: peakMem=0.00
%%%mzn-stat: time=2.380
%%%mzn-stat: initTime=0.008
%%%mzn-stat: solveTime=2.372
%%%mzn-stat: baseMem=0.00
%%%mzn-stat: trailMem=0.04
%%%mzn-stat: randomSeed=115911632
%%%mzn-stat-end
%%%mzn-stat: nSolutions=442
%%%mzn-stat-end
